============================[ Problem Statistics ]=============================|                                                                             ||  Number of variables:          4242                                         ||  Number of clauses:            9935                                         ||  Parse time:                   0.33 s                                       ||                                                                             |============================[ Search Statistics ]==============================| Conflicts |          ORIGINAL         |          LEARNT          | Progress ||           |    Vars  Clauses Literals |    Limit  Clauses Lit/Cl |          |===============================================================================|       100 |    1591     6140   516141 |     2251      100     53 | 62.501 % |===============================================================================restarts              : 2conflicts             : 191            (382 /sec)decisions             : 360            (0.00 % random) (720 /sec)propagations          : 10046          (20092 /sec)conflict literals     : 13294          (95.19 % deleted)CPU time              : 0.5 sSATISFIABLE